myProgram/SAT/uf50-03.lp
max: 7.0v1 + 1.0v2  - 6.0v3 + 2.0v4  - 5.0v5  - 3.0v6  - 7.0v7 + 2.0v8 + 2.0v9 + 4.0v10 + 3.0v11 + 4.0v12  - 1.0v13  - 1.0v14  - 3.0v15  - 1.0v16 + 2.0v17 + 2.0v18  - 1.0v19 + 6.0v20  - 5.0v21  - 3.0v22 + 4.0v23  - 1.0v24 + 2.0v25  - 4.0v26  - 4.0v27  - 1.0v28 + 3.0v30 + 3.0v31 + 4.0v32  - 1.0v33 + 2.0v34  - 3.0v35 + 2.0v36 + 4.0v37  - 4.0v38 + 5.0v39  - 4.0v40 + 2.0v41 + 3.0v42 + 2.0v43  - 6.0v44  - 3.0v45  - 1.0v46  - 2.0v47 + 5.0v48 + 4.0v49  - 4.0v50;

1 - v45 + 1 - v37 + 1 - v1 >= 0;
1 - v40 + v21 + v39 >= 0;
v34 + 1 - v8 + 1 - v13 >= 0;
1 - v16 + 1 - v21 + v5 >= 0;
1 - v22 + v36 + v16 >= 0;
1 - v46 + v19 + v11 >= 0;
v25 + 1 - v48 + 1 - v27 >= 0;
1 - v27 + 1 - v31 + 1 - v2 >= 0;
1 - v28 + 1 - v7 + 1 - v2 >= 0;
v48 + 1 - v5 + v29 >= 0;
1 - v38 + v28 + 1 - v21 >= 0;
1 - v4 + v48 + v26 >= 0;
1 - v25 + 1 - v38 + 1 - v3 >= 0;
v8 + 1 - v3 + 1 - v50 >= 0;
1 - v2 + 1 - v32 + v37 >= 0;
v32 + 1 - v33 + v46 >= 0;
v30 + v34 + 1 - v17 >= 0;
1 - v28 + v39 + 1 - v15 >= 0;
v23 + 1 - v22 + 1 - v44 >= 0;
1 - v5 + v33 + v10 >= 0;
v11 + 1 - v44 + v37 >= 0;
1 - v25 + 1 - v26 + v50 >= 0;
1 - v19 + 1 - v9 + v2 >= 0;
v24 + 1 - v12 + v37 >= 0;
v45 + 1 - v39 + v49 >= 0;
1 - v9 + 1 - v41 + 1 - v5 >= 0;
v12 + v22 + v26 >= 0;
1 - v25 + v32 + v16 >= 0;
1 - v42 + v39 + 1 - v16 >= 0;
1 - v45 + v1 + v39 >= 0;
v5 + v13 + v9 >= 0;
1 - v9 + 1 - v19 + 1 - v27 >= 0;
v41 + 1 - v4 + 1 - v22 >= 0;
1 - v10 + 1 - v22 + 1 - v25 >= 0;
v25 + 1 - v45 + 1 - v31 >= 0;
1 - v31 + v43 + v47 >= 0;
v45 + 1 - v11 + v23 >= 0;
1 - v11 + 1 - v36 + 1 - v6 >= 0;
1 - v18 + 1 - v1 + v8 >= 0;
v23 + v1 + 1 - v2 >= 0;
1 - v37 + 1 - v44 + 1 - v32 >= 0;
v38 + 1 - v27 + 1 - v44 >= 0;
v12 + 1 - v9 + v23 >= 0;
v4 + 1 - v7 + 1 - v15 >= 0;
v18 + v21 + v42 >= 0;
1 - v9 + 1 - v10 + 1 - v47 >= 0;
v24 + 1 - v30 + v7 >= 0;
1 - v5 + v1 + v13 >= 0;
v42 + 1 - v21 + v9 >= 0;
1 - v48 + v49 + v28 >= 0;
1 - v43 + v27 + v11 >= 0;
v19 + v41 + v33 >= 0;
1 - v29 + 1 - v13 + 1 - v23 >= 0;
v43 + 1 - v32 + 1 - v12 >= 0;
1 - v8 + v36 + v42 >= 0;
v36 + v17 + 1 - v46 >= 0;
1 - v25 + v43 + v32 >= 0;
v28 + v13 + v27 >= 0;
v12 + v34 + v29 >= 0;
v20 + 1 - v7 + v14 >= 0;
1 - v41 + v48 + v9 >= 0;
v36 + 1 - v28 + v4 >= 0;
1 - v21 + v5 + v17 >= 0;
1 - v14 + 1 - v35 + v3 >= 0;
1 - v14 + v17 + v31 >= 0;
v50 + 1 - v12 + v9 >= 0;
v20 + 1 - v33 + v40 >= 0;
v27 + 1 - v20 + v43 >= 0;
v31 + v28 + 1 - v14 >= 0;
v37 + v40 + 1 - v19 >= 0;
v14 + v22 + v40 >= 0;
v41 + v2 + 1 - v14 >= 0;
1 - v21 + v26 + 1 - v34 >= 0;
1 - v18 + v46 + 1 - v9 >= 0;
1 - v27 + v9 + 1 - v15 >= 0;
1 - v4 + v41 + 1 - v35 >= 0;
1 - v17 + v11 + 1 - v26 >= 0;
v21 + v32 + v7 >= 0;
v49 + 1 - v37 + 1 - v20 >= 0;
1 - v4 + v48 + v19 >= 0;
v48 + 1 - v7 + 1 - v24 >= 0;
1 - v28 + 1 - v10 + 1 - v21 >= 0;
1 - v21 + v48 + 1 - v46 >= 0;
v26 + 1 - v42 + v2 >= 0;
1 - v6 + 1 - v28 + 1 - v23 >= 0;
v47 + v1 + v35 >= 0;
1 - v11 + 1 - v44 + v27 >= 0;
v23 + 1 - v3 + 1 - v15 >= 0;
v12 + v18 + v29 >= 0;
1 - v17 + v25 + 1 - v37 >= 0;
v26 + 1 - v21 + 1 - v31 >= 0;
v28 + 1 - v1 + v42 >= 0;
1 - v22 + v4 + v27 >= 0;
v24 + 1 - v33 + v36 >= 0;
1 - v11 + v12 + v30 >= 0;
1 - v28 + v23 + v9 >= 0;
v15 + 1 - v14 + v48 >= 0;
1 - v42 + v49 + v48 >= 0;
v2 + 1 - v3 + v1 >= 0;
v15 + v9 + 1 - v36 >= 0;
1 - v40 + v37 + v11 >= 0;
v5 + v39 + 1 - v38 >= 0;
v24 + 1 - v50 + v31 >= 0;
1 - v36 + 1 - v29 + 1 - v3 >= 0;
1 - v43 + v46 + v8 >= 0;
1 - v16 + 1 - v48 + 1 - v4 >= 0;
1 - v50 + v1 + v17 >= 0;
1 - v19 + 1 - v27 + v25 >= 0;
v50 + v33 + v31 >= 0;
v2 + 1 - v12 + v8 >= 0;
1 - v26 + 1 - v5 + v13 >= 0;
v8 + v30 + v9 >= 0;
v49 + 1 - v35 + 1 - v39 >= 0;
v25 + 1 - v34 + 1 - v18 >= 0;
v17 + 1 - v37 + 1 - v49 >= 0;
v40 + v21 + v42 >= 0;
v11 + 1 - v8 + v1 >= 0;
v31 + v30 + 1 - v2 >= 0;
v4 + 1 - v28 + v19 >= 0;
v9 + v48 + 1 - v42 >= 0;
1 - v44 + v12 + v8 >= 0;
v6 + 1 - v24 + 1 - v16 >= 0;
v24 + 1 - v23 + 1 - v27 >= 0;
1 - v10 + v45 + 1 - v7 >= 0;
v34 + 1 - v25 + v36 >= 0;
v11 + v24 + 1 - v19 >= 0;
1 - v26 + v14 + 1 - v5 >= 0;
v37 + v43 + v20 >= 0;
1 - v43 + v28 + v6 >= 0;
v38 + v39 + 1 - v46 >= 0;
1 - v31 + 1 - v24 + v50 >= 0;
1 - v31 + v17 + 1 - v21 >= 0;
v33 + v44 + v34 >= 0;
v12 + 1 - v50 + 1 - v29 >= 0;
1 - v38 + v37 + 1 - v24 >= 0;
v9 + 1 - v40 + v10 >= 0;
1 - v16 + v20 + v17 >= 0;
v28 + 1 - v38 + v18 >= 0;
1 - v13 + v1 + v25 >= 0;
1 - v26 + 1 - v5 + v10 >= 0;
1 - v35 + v47 + 1 - v8 >= 0;
v45 + v20 + v15 >= 0;
v36 + 1 - v33 + 1 - v7 >= 0;
v27 + 1 - v7 + v46 >= 0;
1 - v24 + v23 + v17 >= 0;
v2 + 1 - v6 + v1 >= 0;
v5 + v45 + 1 - v24 >= 0;
1 - v39 + 1 - v42 + v12 >= 0;
1 - v41 + v21 + v12 >= 0;
v49 + 1 - v45 + v32 >= 0;
v20 + 1 - v30 + v8 >= 0;
1 - v24 + v42 + v3 >= 0;
1 - v27 + 1 - v50 + 1 - v1 >= 0;
v43 + v36 + 1 - v15 >= 0;
1 - v14 + 1 - v21 + v30 >= 0;
v47 + v5 + v37 >= 0;
v12 + 1 - v48 + 1 - v17 >= 0;
v24 + v21 + v27 >= 0;
1 - v18 + v2 + 1 - v7 >= 0;
1 - v17 + v19 + 1 - v49 >= 0;
1 - v4 + v10 + v39 >= 0;
1 - v15 + 1 - v26 + v11 >= 0;
1 - v8 + 1 - v14 + 1 - v26 >= 0;
1 - v5 + 1 - v35 + 1 - v11 >= 0;
1 - v3 + v10 + v37 >= 0;
1 - v3 + 1 - v32 + v10 >= 0;
1 - v7 + v21 + 1 - v32 >= 0;
1 - v45 + v25 + 1 - v12 >= 0;
1 - v33 + v16 + v31 >= 0;
v32 + v4 + v31 >= 0;
1 - v40 + 1 - v6 + 1 - v34 >= 0;
v20 + 1 - v5 + v1 >= 0;
1 - v39 + v37 + 1 - v36 >= 0;
1 - v46 + 1 - v47 + v12 >= 0;
1 - v48 + 1 - v21 + v17 >= 0;
v31 + 1 - v28 + v24 >= 0;
1 - v44 + 1 - v46 + v27 >= 0;
1 - v5 + v36 + 1 - v40 >= 0;
v32 + v16 + v48 >= 0;
1 - v5 + v25 + 1 - v26 >= 0;
1 - v13 + v42 + 1 - v19 >= 0;
v20 + v14 + 1 - v17 >= 0;
v18 + 1 - v47 + v41 >= 0;
1 - v43 + v14 + 1 - v25 >= 0;
1 - v50 + v26 + v4 >= 0;
1 - v21 + 1 - v9 + 1 - v40 >= 0;
1 - v18 + 1 - v39 + 1 - v47 >= 0;
v48 + 1 - v47 + 1 - v23 >= 0;
1 - v48 + v42 + 1 - v6 >= 0;
1 - v37 + v39 + 1 - v13 >= 0;
v18 + 1 - v14 + v22 >= 0;
v32 + 1 - v29 + 1 - v48 >= 0;
v10 + v24 + 1 - v2 >= 0;
1 - v12 + v44 + v39 >= 0;
1 - v36 + 1 - v45 + v13 >= 0;
v31 + v9 + v32 >= 0;
v4 + v6 + 1 - v50 >= 0;
1 - v31 + 1 - v27 + v1 >= 0;
v16 + v4 + v46 >= 0;
1 - v29 + 1 - v39 + 1 - v46 >= 0;
1 - v9 + v18 + v46 >= 0;
1 - v12 + 1 - v24 + v25 >= 0;
1 - v18 + v39 + v9 >= 0;
1 - v38 + 1 - v9 + v14 >= 0;
v35 + 1 - v28 + v39 >= 0;
1 - v17 + 1 - v27 + 1 - v26 >= 0;
1 - v9 + 1 - v50 + 1 - v24 >= 0;
1 - v17 + v28 + v18 >= 0;
v37 + 1 - v6 + v31 >= 0;
1 - v3 + v29 + 1 - v45 >= 0;
v48 + v17 + 1 - v9 >= 0;
1 - v22 + v9 + 1 - v47 >= 0;
1 - v26 + 1 - v24 + 1 - v13 >= 0;
1 - v16 + 1 - v36 + 1 - v37 >= 0;
v14 + 1 - v40 + v10 >= 0;
1 - v40 + v29 + 1 - v27 >= 0;
1 - v45 + v23 + 1 - v36 >= 0;
1 - v27 + 1 - v44 + v18 >= 0;
0 <= v1 <= 1;
0 <= v2 <= 1;
0 <= v3 <= 1;
0 <= v4 <= 1;
0 <= v5 <= 1;
0 <= v6 <= 1;
0 <= v7 <= 1;
0 <= v8 <= 1;
0 <= v9 <= 1;
0 <= v10 <= 1;
0 <= v11 <= 1;
0 <= v12 <= 1;
0 <= v13 <= 1;
0 <= v14 <= 1;
0 <= v15 <= 1;
0 <= v16 <= 1;
0 <= v17 <= 1;
0 <= v18 <= 1;
0 <= v19 <= 1;
0 <= v20 <= 1;
0 <= v21 <= 1;
0 <= v22 <= 1;
0 <= v23 <= 1;
0 <= v24 <= 1;
0 <= v25 <= 1;
0 <= v26 <= 1;
0 <= v27 <= 1;
0 <= v28 <= 1;
0 <= v29 <= 1;
0 <= v30 <= 1;
0 <= v31 <= 1;
0 <= v32 <= 1;
0 <= v33 <= 1;
0 <= v34 <= 1;
0 <= v35 <= 1;
0 <= v36 <= 1;
0 <= v37 <= 1;
0 <= v38 <= 1;
0 <= v39 <= 1;
0 <= v40 <= 1;
0 <= v41 <= 1;
0 <= v42 <= 1;
0 <= v43 <= 1;
0 <= v44 <= 1;
0 <= v45 <= 1;
0 <= v46 <= 1;
0 <= v47 <= 1;
0 <= v48 <= 1;
0 <= v49 <= 1;
0 <= v50 <= 1;
