myProgram/SAT/uf50-03.txt

Value of objective function: 80.00000000

Actual values of the variables:
v1                              1
v2                              1
v3                              0
v4                              1
v5                              0
v6                              0
v7                              0
v8                              1
v9                              1
v10                             1
v11                             1
v12                             1
v13                             0
v14                             0
v15                             0
v16                             0
v17                             1
v18                             1
v19                             0
v20                             1
v21                             0
v22                             0
v23                             1
v24                             0
v25                             1
v26                             0
v27                             0
v28                             0
v30                             1
v31                             1
v32                             1
v33                             0
v34                             1
v35                             0
v36                             1
v37                             1
v38                             0
v39                             1
v40                             0
v41                             1
v42                             1
v43                             1
v44                             0
v45                             0
v46                             0
v47                             0
v48                             1
v49                             1
v50                             0
v29                             0
